proyfinal/src/viki/013/experimentInOfficeAgust.take6.output/53ada46d-2f20-4d75-8c7b-6c9146118dc0.als.dat
{'cnf.clauses': '118081',
 'cnf.totvars': '69608',
 'conflict literals': '65',
 'conflicts': '21',
 'decisions': '2891',
 'memused.mb': '15.91',
 'outcome': 'UNSAT',
 'propagations': '20544',
 'restarts': '1',
 'solver.msecs': 31,
 'task.msecs': 147}
