proyfinal/src/viki/013/experimentInOfficeAgust.take6.output/53ada46d-2f20-4d75-8c7b-6c9146118dc0.als.out
Reading from standard input... Use '--help' for help.
============================[ Problem Statistics ]=============================
|                                                                             |
|  Number of variables:         69608                                         |
|  Number of clauses:          118081                                         |
|  Parse time:                   0.02 s                                       |
|                                                                             |
============================[ Search Statistics ]==============================
| Conflicts |          ORIGINAL         |          LEARNT          | Progress |
|           |    Vars  Clauses Literals |    Limit  Clauses Lit/Cl |          |
===============================================================================
===============================================================================
restarts              : 1
conflicts             : 21             (676 /sec)
decisions             : 2891           (0.00 % random) (93129 /sec)
propagations          : 20544          (661792 /sec)
conflict literals     : 65             (0.00 % deleted)
Memory used           : 15.91 MB
CPU time              : 0.031043 s

UNSATISFIABLE
